# Objective value = 2.8576927061715069e+03
x[0] 1
x[1] 0
x[2] 0
x[3] 1
x[4] 1
x[5] 1
x[6] 0
x[7] 0
x[8] 0
x[9] 0
x[10] 1
x[11] 1
x[12] 1
x[13] 1
x[14] 0
x[15] 0
x[16] 1
x[17] 0
x[18] 0
x[19] 0
x[20] 0
x[21] 1
x[22] 0
x[23] 1
x[24] 0
x[25] 0
x[26] 1
x[27] 1
x[28] 0
x[29] 1
x[30] 0
x[31] 1
x[32] 1
x[33] 0
x[34] 1
x[35] 1
x[36] 0
x[37] 1
x[38] 1
x[39] 1
x[40] 1
x[41] 0
x[42] 0
x[43] 0
x[44] 1
x[45] 0
x[46] 0
x[47] 1
x[48] 0
x[49] 1
x[50] 0
x[51] 1
x[52] 0
x[53] 1
x[54] 0
x[55] 1
x[56] 1
x[57] 1
x[58] 1
x[59] 1
x[60] 0
x[61] 0
x[62] 0
x[63] 0
x[64] 1
x[65] 1
x[66] 1
x[67] 1
x[68] 0
x[69] 0
x[70] 1
x[71] 1
x[72] 0
x[73] 1
x[74] 1
x[75] 0
x[76] 0
x[77] 0
x[78] 0
x[79] 0
x[80] 0
x[81] 0
x[82] 1
x[83] 0
x[84] 1
x[85] 1
x[86] 0
x[87] 1
x[88] 0
x[89] 1
x[90] 1
x[91] 1
x[92] 1
x[93] 1
x[94] 1
x[95] 0
x[96] 0
x[97] 0
x[98] 1
x[99] 1
x[100] 1
x[101] 1
x[102] 0
x[103] 1
x[104] 1
x[105] 1
x[106] 0
x[107] 0
x[108] 1
x[109] 0
x[110] 1
x[111] 0
x[112] 0
x[113] 0
x[114] 0
x[115] 1
x[116] 1
x[117] 0
x[118] 0
x[119] 0
x[120] 0
x[121] 0
x[122] 1
x[123] 0
x[124] 1
x[125] 1
x[126] 1
x[127] 0
x[128] 0
x[129] 0
x[130] 1
x[131] 0
x[132] 1
x[133] 1
x[134] 0
x[135] 0
x[136] 1
x[137] 0
x[138] 1
x[139] 0
x[140] 0
x[141] 0
x[142] 1
x[143] 1
x[144] 0
x[145] 1
x[146] 0
x[147] 0
x[148] 1
x[149] 1
x[150] 1
x[151] 1
x[152] 0
x[153] 0
x[154] 0
x[155] 0
x[156] 1
x[157] 0
x[158] 1
x[159] 0
x[160] 0
x[161] 0
x[162] 0
x[163] 0
x[164] 0
x[165] 0
x[166] 1
x[167] 1
x[168] 0
x[169] 1
x[170] 1
x[171] 1
x[172] 0
x[173] 1
x[174] 1
x[175] 0
x[176] 0
x[177] 1
x[178] 0
x[179] 0
x[180] 0
x[181] 0
x[182] 1
x[183] 0
x[184] 0
x[185] 1
x[186] 0
x[187] 0
x[188] 0
x[189] 0
x[190] 1
x[191] 0
x[192] 0
x[193] 1
x[194] 0
x[195] 1
x[196] 1
x[197] 1
x[198] 1
x[199] 1
x[200] 0
x[201] 0
x[202] 0
x[203] 1
x[204] 1
x[205] 0
x[206] 1
x[207] 1
x[208] 0
x[209] 1
x[210] 1
x[211] 1
x[212] 0
x[213] 1
x[214] 0
x[215] 0
x[216] 1
x[217] 0
x[218] 1
x[219] 0
x[220] 0
x[221] 1
x[222] 0
x[223] 1
x[224] 1
x[225] 0
x[226] 0
x[227] 0
x[228] 1
x[229] 1
x[230] 1
x[231] 0
x[232] 0
x[233] 0
x[234] 1
x[235] 0
x[236] 1
x[237] 1
x[238] 1
x[239] 0
x[240] 0
x[241] 1
x[242] 1
x[243] 0
x[244] 1
x[245] 0
x[246] 1
x[247] 1
x[248] 0
x[249] 0
x[250] 0
x[251] 0
x[252] 0
x[253] 0
x[254] 1
x[255] 1
x[256] 1
x[257] 1
x[258] 0
x[259] 1
x[260] 0
x[261] 0
x[262] 0
x[263] 0
x[264] 0
x[265] 0
x[266] 0
x[267] 0
x[268] 0
x[269] 1
x[270] 0
x[271] 0
x[272] 1
x[273] 1
x[274] 1
x[275] 1
x[276] 1
x[277] 1
x[278] 0
x[279] 1
x[280] 1
x[281] 1
x[282] 0
x[283] 1
x[284] 0
x[285] 0
x[286] 0
x[287] 1
x[288] 1
x[289] 0
x[290] 0
x[291] 1
x[292] 1
x[293] 0
x[294] 0
x[295] 1
x[296] 1
x[297] 1
x[298] 1
x[299] 1
x[300] 0
x[301] 1
x[302] 1
x[303] 1
x[304] 1
x[305] 1
x[306] 1
x[307] 0
x[308] 0
x[309] 1
x[310] 0
x[311] 0
x[312] 1
x[313] 0
x[314] 0
x[315] 0
x[316] 1
x[317] 0
x[318] 0
x[319] 1
x[320] 1
x[321] 0
x[322] 1
x[323] 1
x[324] 1
x[325] 0
x[326] 1
x[327] 0
x[328] 1
x[329] 0
x[330] 1
x[331] 1
x[332] 0
x[333] 1
x[334] 0
x[335] 1
x[336] 1
x[337] 1
x[338] 1
x[339] 0
x[340] 1
x[341] 1
x[342] 0
x[343] 0
x[344] 1
x[345] 0
x[346] 1
x[347] 1
x[348] 0
x[349] 1
x[350] 1
x[351] 1
x[352] 1
x[353] 1
x[354] 1
x[355] 0
x[356] 0
x[357] 0
x[358] 1
x[359] 1
x[360] 1
x[361] 1
x[362] 0
x[363] 1
x[364] 1
x[365] 0
x[366] 0
x[367] 1
x[368] 1
x[369] 1
x[370] 0
x[371] 0
x[372] 1
x[373] 1
x[374] 0
x[375] 1
x[376] 0
x[377] 0
x[378] 1
x[379] 1
x[380] 1
x[381] 0
x[382] 0
x[383] 1
x[384] 0
x[385] 0
x[386] 1
x[387] 1
x[388] 1
x[389] 0
x[390] 1
x[391] 0
x[392] 1
x[393] 1
x[394] 1
x[395] 0
x[396] 0
x[397] 1
x[398] 0
x[399] 1
x[400] 0
x[401] 0
x[402] 0
x[403] 1
x[404] 0
x[405] 0
x[406] 1
x[407] 1
x[408] 1
x[409] 0
x[410] 0
x[411] 0
x[412] 1
x[413] 1
x[414] 1
x[415] 1
x[416] 0
x[417] 1
x[418] 0
x[419] 0
x[420] 0
x[421] 0
x[422] 1
x[423] 1
x[424] 0
x[425] 0
x[426] 0
x[427] 1
x[428] 1
x[429] 1
x[430] 0
x[431] 0
x[432] 1
x[433] 1
x[434] 0
x[435] 0
x[436] 0
x[437] 1
x[438] 1
x[439] 0
x[440] 1
x[441] 0
x[442] 1
x[443] 0
x[444] 0
x[445] 0
x[446] 0
x[447] 0
x[448] 1
x[449] 1
x[450] 0
x[451] 0
x[452] 1
x[453] 0
x[454] 1
x[455] 1
x[456] 1
x[457] 0
x[458] 1
x[459] 0
x[460] 0
x[461] 1
x[462] 0
x[463] 1
x[464] 0
x[465] 0
x[466] 1
x[467] 0
x[468] 1
x[469] 0
x[470] 1
x[471] 1
x[472] 0
x[473] 0
x[474] 0
x[475] 1
x[476] 1
x[477] 1
x[478] 0
x[479] 1
x[480] 0
x[481] 1
x[482] 0
x[483] 0
x[484] 1
x[485] 0
x[486] 0
x[487] 1
x[488] 1
x[489] 0
x[490] 0
x[491] 0
x[492] 1
x[493] 1
x[494] 0
x[495] 0
x[496] 1
x[497] 1
x[498] 0
x[499] 0
x[500] 0
x[501] 1
x[502] 1
x[503] 1
x[504] 0
x[505] 0
x[506] 1
x[507] 0
x[508] 1
x[509] 0
x[510] 1
x[511] 0
x[512] 1
x[513] 1
x[514] 0
x[515] 0
x[516] 0
x[517] 1
x[518] 1
x[519] 0
x[520] 1
x[521] 1
x[522] 1
x[523] 0
x[524] 0
x[525] 0
x[526] 1
x[527] 0
x[528] 0
x[529] 0
x[530] 1
x[531] 0
x[532] 1
x[533] 1
x[534] 0
x[535] 0
x[536] 0
x[537] 0
x[538] 1
x[539] 0
x[540] 0
x[541] 1
x[542] 1
x[543] 0
x[544] 1
x[545] 0
x[546] 1
x[547] 1
x[548] 0
x[549] 0
x[550] 1
x[551] 1
x[552] 1
x[553] 1
x[554] 1
x[555] 1
x[556] 0
x[557] 0
x[558] 1
x[559] 1
x[560] 0
x[561] 0
x[562] 0
x[563] 1
x[564] 0
x[565] 0
x[566] 1
x[567] 1
x[568] 1
x[569] 0
x[570] 1
x[571] 0
x[572] 0
x[573] 0
x[574] 1
x[575] 1
x[576] 0
x[577] 1
x[578] 1
x[579] 0
x[580] 0
x[581] 1
x[582] 0
x[583] 0
x[584] 0
x[585] 1
x[586] 0
x[587] 1
x[588] 0
x[589] 1
x[590] 1
x[591] 1
x[592] 1
x[593] 1
x[594] 1
x[595] 1
x[596] 1
x[597] 1
x[598] 1
x[599] 0
x[600] 0
x[601] 1
x[602] 0
x[603] 1
x[604] 0
x[605] 1
x[606] 1
x[607] 1
x[608] 1
x[609] 0
x[610] 0
x[611] 1
x[612] 1
x[613] 1
x[614] 1
x[615] 1
x[616] 0
x[617] 0
x[618] 0
x[619] 1
x[620] 0
x[621] 1
x[622] 0
x[623] 0
x[624] 1
x[625] 0
x[626] 1
x[627] 1
x[628] 0
x[629] 1
x[630] 1
x[631] 1
x[632] 1
x[633] 0
x[634] 0
x[635] 1
x[636] 1
x[637] 0
x[638] 1
x[639] 1
x[640] 0
x[641] 1
x[642] 1
x[643] 1
x[644] 0
x[645] 1
x[646] 0
x[647] 1
x[648] 1
x[649] 0
x[650] 0
x[651] 1
x[652] 0
x[653] 1
x[654] 0
x[655] 1
x[656] 1
x[657] 0
x[658] 0
x[659] 0
x[660] 1
x[661] 0
x[662] 1
x[663] 1
x[664] 1
x[665] 0
x[666] 1
x[667] 1
x[668] 1
x[669] 1
x[670] 1
x[671] 0
x[672] 1
x[673] 0
x[674] 1
x[675] 0
x[676] 1
x[677] 1
x[678] 0
x[679] 1
x[680] 1
x[681] 1
x[682] 0
x[683] 0
x[684] 1
x[685] 1
x[686] 1
x[687] 0
x[688] 1
x[689] 0
x[690] 0
x[691] 0
x[692] 1
x[693] 0
x[694] 1
x[695] 0
x[696] 0
x[697] 1
x[698] 0
x[699] 0
x[700] 0
x[701] 0
x[702] 0
x[703] 1
x[704] 0
x[705] 1
x[706] 0
x[707] 0
x[708] 1
x[709] 1
x[710] 1
x[711] 0
x[712] 0
x[713] 1
x[714] 0
x[715] 1
x[716] 0
x[717] 1
x[718] 1
x[719] 0
x[720] 1
x[721] 0
x[722] 1
x[723] 1
x[724] 0
x[725] 0
x[726] 0
x[727] 1
x[728] 0
x[729] 1
x[730] 1
x[731] 0
x[732] 1
x[733] 0
x[734] 0
x[735] 0
x[736] 1
x[737] 0
x[738] 1
x[739] 0
x[740] 1
x[741] 1
x[742] 0
x[743] 0
x[744] 0
x[745] 0
x[746] 0
x[747] 1
x[748] 1
x[749] 1
x[750] 0
x[751] 1
x[752] 0
x[753] 1
x[754] 0
x[755] 1
x[756] 1
x[757] 1
x[758] 0
x[759] 1
x[760] 1
x[761] 0
x[762] 0
x[763] 0
x[764] 1
x[765] 0
x[766] 1
x[767] 1
x[768] 0
x[769] 1
x[770] 1
x[771] 0
x[772] 1
x[773] 0
x[774] 1
x[775] 0
x[776] 1
x[777] 1
x[778] 0
x[779] 1
x[780] 0
x[781] 0
x[782] 0
x[783] 0
x[784] 1
x[785] 1
x[786] 1
x[787] 0
x[788] 0
x[789] 1
x[790] 1
x[791] 0
x[792] 0
x[793] 1
x[794] 1
x[795] 0
x[796] 0
x[797] 1
x[798] 1
x[799] 0
x[800] 1
x[801] 0
x[802] 1
x[803] 0
x[804] 1
x[805] 0
x[806] 1
x[807] 0
x[808] 0
x[809] 0
x[810] 1
x[811] 0
x[812] 0
x[813] 0
x[814] 1
x[815] 0
x[816] 1
x[817] 1
x[818] 1
x[819] 1
x[820] 1
x[821] 1
x[822] 0
x[823] 1
x[824] 1
x[825] 1
x[826] 0
x[827] 1
x[828] 1
x[829] 0
x[830] 1
x[831] 0
x[832] 1
x[833] 0
x[834] 1
x[835] 0
x[836] 1
x[837] 0
x[838] 0
x[839] 0
x[840] 0
x[841] 1
x[842] 0
x[843] 0
x[844] 1
x[845] 1
x[846] 0
x[847] 0
x[848] 0
x[849] 0
x[850] 0
x[851] 1
x[852] 0
x[853] 0
x[854] 1
x[855] 0
x[856] 1
x[857] 0
x[858] 1
x[859] 0
x[860] 0
x[861] 1
x[862] 1
x[863] 1
x[864] 1
x[865] 1
x[866] 0
x[867] 0
x[868] 1
x[869] 0
x[870] 0
x[871] 1
x[872] 0
x[873] 1
x[874] 1
x[875] 1
x[876] 1
x[877] 0
x[878] 1
x[879] 0
x[880] 1
x[881] 1
x[882] 1
x[883] 1
x[884] 0
x[885] 1
x[886] 1
x[887] 1
x[888] 1
x[889] 0
x[890] 0
x[891] 1
x[892] 0
x[893] 1
x[894] 0
x[895] 0
x[896] 0
x[897] 0
x[898] 1
x[899] 0
x[900] 0
x[901] 1
x[902] 1
x[903] 1
x[904] 0
x[905] 1
x[906] 1
x[907] 1
x[908] 1
x[909] 0
x[910] 1
x[911] 1
x[912] 1
x[913] 1
x[914] 0
x[915] 0
x[916] 0
x[917] 1
x[918] 1
x[919] 1
x[920] 0
x[921] 0
x[922] 1
x[923] 1
x[924] 1
x[925] 1
x[926] 0
x[927] 0
x[928] 1
x[929] 1
x[930] 0
x[931] 0
x[932] 1
x[933] 1
x[934] 1
x[935] 0
x[936] 0
x[937] 1
x[938] 1
x[939] 0
x[940] 1
x[941] 1
x[942] 1
x[943] 0
x[944] 1
x[945] 1
x[946] 1
x[947] 0
x[948] 1
x[949] 1
x[950] 1
x[951] 1
x[952] 0
x[953] 0
x[954] 1
x[955] 0
x[956] 1
x[957] 0
x[958] 1
x[959] 1
x[960] 1
x[961] 1
x[962] 0
x[963] 1
x[964] 0
x[965] 1
x[966] 0
x[967] 1
x[968] 1
x[969] 1
x[970] 1
x[971] 1
x[972] 1
x[973] 1
x[974] 1
x[975] 1
x[976] 0
x[977] 0
x[978] 0
x[979] 1
x[980] 1
x[981] 0
x[982] 0
x[983] 0
x[984] 1
x[985] 1
x[986] 0
x[987] 1
x[988] 1
x[989] 0
x[990] 1
x[991] 0
x[992] 1
x[993] 0
x[994] 1
x[995] 1
x[996] 1
x[997] 0
x[998] 0
x[999] 1
x[1000] 1
x[1001] 1
x[1002] 0
x[1003] 0
x[1004] 1
x[1005] 1
x[1006] 0
x[1007] 1
x[1008] 1
x[1009] 1
x[1010] 0
x[1011] 0
x[1012] 1
x[1013] 0
x[1014] 0
x[1015] 0
x[1016] 0
x[1017] 1
x[1018] 0
x[1019] 0
x[1020] 1
x[1021] 1
x[1022] 1
x[1023] 0
x[1024] 1
x[1025] 0
x[1026] 1
x[1027] 0
x[1028] 1
x[1029] 0
x[1030] 1
x[1031] 0
x[1032] 1
x[1033] 0
x[1034] 0
x[1035] 1
x[1036] 1
x[1037] 0
x[1038] 0
x[1039] 1
x[1040] 1
x[1041] 1
x[1042] 0
x[1043] 0
x[1044] 0
x[1045] 0
x[1046] 0
x[1047] 0
x[1048] 1
x[1049] 0
x[1050] 1
x[1051] 1
x[1052] 1
x[1053] 0
x[1054] 1
x[1055] 1
x[1056] 1
x[1057] 0
x[1058] 1
x[1059] 1
x[1060] 0
x[1061] 0
x[1062] 0
x[1063] 1
x[1064] 0
x[1065] 0
x[1066] 1
x[1067] 1
x[1068] 1
x[1069] 0
x[1070] 1
x[1071] 1
x[1072] 1
x[1073] 1
x[1074] 1
x[1075] 0
x[1076] 1
x[1077] 1
x[1078] 1
x[1079] 0
x[1080] 1
x[1081] 1
x[1082] 1
x[1083] 1
x[1084] 0
x[1085] 1
x[1086] 1
x[1087] 0
x[1088] 0
x[1089] 0
x[1090] 0
x[1091] 1
x[1092] 0
x[1093] 0
x[1094] 0
x[1095] 1
x[1096] 0
x[1097] 1
x[1098] 0
x[1099] 0
x[1100] 0
x[1101] 0
x[1102] 1
x[1103] 1
x[1104] 0
x[1105] 1
x[1106] 1
x[1107] 0
x[1108] 0
x[1109] 0
x[1110] 1
x[1111] 1
x[1112] 1
x[1113] 0
x[1114] 1
x[1115] 0
x[1116] 1
x[1117] 0
x[1118] 0
x[1119] 0
x[1120] 0
x[1121] 0
x[1122] 1
x[1123] 1
x[1124] 1
x[1125] 1
x[1126] 1
x[1127] 0
x[1128] 0
x[1129] 0
x[1130] 0
x[1131] 1
x[1132] 0
x[1133] 1
x[1134] 1
x[1135] 0
x[1136] 1
x[1137] 1
x[1138] 1
x[1139] 0
x[1140] 0
x[1141] 1
x[1142] 1
x[1143] 0
x[1144] 0
x[1145] 1
x[1146] 0
x[1147] 0
x[1148] 1
x[1149] 0
x[1150] 0
x[1151] 1
x[1152] 0
x[1153] 1
x[1154] 1
x[1155] 1
x[1156] 1
x[1157] 1
x[1158] 1
x[1159] 0
x[1160] 0
x[1161] 1
x[1162] 0
x[1163] 1
x[1164] 0
x[1165] 1
x[1166] 1
x[1167] 1
x[1168] 1
x[1169] 1
x[1170] 0
x[1171] 1
x[1172] 1
x[1173] 0
x[1174] 0
x[1175] 1
x[1176] 0
x[1177] 1
x[1178] 1
x[1179] 1
x[1180] 1
x[1181] 1
x[1182] 1
x[1183] 1
x[1184] 1
x[1185] 1
x[1186] 1
x[1187] 1
x[1188] 1
x[1189] 0
x[1190] 0
x[1191] 1
x[1192] 1
x[1193] 0
x[1194] 1
x[1195] 0
x[1196] 0
x[1197] 0
x[1198] 1
x[1199] 1
x[1200] 1
x[1201] 0
x[1202] 1
x[1203] 0
x[1204] 0
x[1205] 0
x[1206] 0
x[1207] 1
x[1208] 0
x[1209] 0
x[1210] 1
x[1211] 1
x[1212] 1
x[1213] 1
x[1214] 0
x[1215] 0
x[1216] 1
x[1217] 0
x[1218] 1
x[1219] 0
x[1220] 0
x[1221] 0
x[1222] 1
x[1223] 1
x[1224] 1
x[1225] 0
x[1226] 1
x[1227] 1
x[1228] 1
x[1229] 1
x[1230] 1
x[1231] 0
x[1232] 1
x[1233] 1
x[1234] 0
x[1235] 1
x[1236] 1
x[1237] 0
x[1238] 1
x[1239] 1
x[1240] 1
x[1241] 0
x[1242] 0
x[1243] 0
x[1244] 0
x[1245] 0
x[1246] 1
x[1247] 0
x[1248] 1
x[1249] 1
x[1250] 0
x[1251] 1
x[1252] 1
x[1253] 0
x[1254] 0
x[1255] 1
x[1256] 1
x[1257] 1
x[1258] 0
x[1259] 0
x[1260] 1
x[1261] 0
x[1262] 1
x[1263] 1
x[1264] 1
x[1265] 0
x[1266] 1
x[1267] 0
x[1268] 0
x[1269] 0
x[1270] 0
x[1271] 1
x[1272] 1
x[1273] 0
x[1274] 0
x[1275] 0
x[1276] 0
x[1277] 1
x[1278] 1
x[1279] 0
x[1280] 0
x[1281] 0
x[1282] 1
x[1283] 1
x[1284] 0
x[1285] 0
x[1286] 0
x[1287] 1
x[1288] 1
x[1289] 0
x[1290] 0
x[1291] 0
x[1292] 0
x[1293] 1
x[1294] 1
x[1295] 0
x[1296] 0
x[1297] 0
x[1298] 1
x[1299] 0
x[1300] 1
x[1301] 1
x[1302] 0
x[1303] 1
x[1304] 1
x[1305] 0
x[1306] 0
x[1307] 1
x[1308] 0
x[1309] 1
x[1310] 0
x[1311] 0
x[1312] 1
x[1313] 0
x[1314] 1
x[1315] 0
x[1316] 0
x[1317] 0
x[1318] 0
x[1319] 1
x[1320] 0
x[1321] 1
x[1322] 1
x[1323] 0
x[1324] 1
x[1325] 0
x[1326] 0
x[1327] 0
x[1328] 0
x[1329] 0
x[1330] 1
x[1331] 1
x[1332] 0
x[1333] 0
x[1334] 0
x[1335] 1
x[1336] 0
x[1337] 1
x[1338] 1
x[1339] 1
x[1340] 1
x[1341] 0
x[1342] 1
x[1343] 1
x[1344] 1
x[1345] 1
x[1346] 0
x[1347] 1
x[1348] 1
x[1349] 0
x[1350] 0
x[1351] 0
x[1352] 1
x[1353] 1
x[1354] 0
x[1355] 1
x[1356] 1
x[1357] 0
x[1358] 0
x[1359] 1
x[1360] 1
x[1361] 1
x[1362] 0
x[1363] 0
x[1364] 1
x[1365] 1
x[1366] 0
x[1367] 0
x[1368] 1
x[1369] 1
x[1370] 1
x[1371] 1
x[1372] 0
x[1373] 1
x[1374] 1
x[1375] 0
x[1376] 0
x[1377] 0
x[1378] 1
x[1379] 1
x[1380] 1
x[1381] 1
x[1382] 1
x[1383] 0
x[1384] 0
x[1385] 1
x[1386] 0
x[1387] 1
x[1388] 0
x[1389] 0
x[1390] 1
x[1391] 0
x[1392] 0
x[1393] 0
x[1394] 0
x[1395] 1
x[1396] 0
x[1397] 0
x[1398] 1
x[1399] 0
x[1400] 1
x[1401] 1
x[1402] 0
x[1403] 0
x[1404] 1
x[1405] 0
x[1406] 0
x[1407] 1
x[1408] 0
x[1409] 0
x[1410] 1
x[1411] 0
x[1412] 1
x[1413] 1
x[1414] 0
x[1415] 1
x[1416] 1
x[1417] 1
x[1418] 0
x[1419] 0
x[1420] 0
x[1421] 0
x[1422] 1
x[1423] 1
x[1424] 1
x[1425] 0
x[1426] 0
x[1427] 1
x[1428] 1
x[1429] 1
x[1430] 0
x[1431] 1
x[1432] 1
x[1433] 1
x[1434] 0
x[1435] 1
x[1436] 1
x[1437] 0
x[1438] 0
x[1439] 1
x[1440] 1
x[1441] 1
x[1442] 0
x[1443] 1
x[1444] 1
x[1445] 1
x[1446] 0
x[1447] 1
x[1448] 1
x[1449] 0
x[1450] 1
x[1451] 0
x[1452] 0
x[1453] 0
x[1454] 0
x[1455] 0
x[1456] 0
x[1457] 1
x[1458] 0
x[1459] 1
x[1460] 0
x[1461] 0
x[1462] 1
x[1463] 1
x[1464] 1
x[1465] 0
x[1466] 0
x[1467] 1
x[1468] 1
x[1469] 1
x[1470] 0
x[1471] 1
x[1472] 1
x[1473] 1
x[1474] 1
x[1475] 0
x[1476] 1
x[1477] 1
x[1478] 1
x[1479] 1
x[1480] 1
x[1481] 0
x[1482] 1
x[1483] 0
x[1484] 1
x[1485] 1
x[1486] 0
x[1487] 0
x[1488] 0
x[1489] 0
x[1490] 1
x[1491] 1
x[1492] 1
x[1493] 1
x[1494] 0
x[1495] 0
x[1496] 1
x[1497] 0
x[1498] 1
x[1499] 0
x[1500] 0
x[1501] 0
x[1502] 1
x[1503] 1
x[1504] 0
x[1505] 1
x[1506] 1
x[1507] 1
x[1508] 1
x[1509] 1
x[1510] 1
x[1511] 1
x[1512] 1
x[1513] 0
x[1514] 0
x[1515] 1
x[1516] 1
x[1517] 0
x[1518] 0
x[1519] 1
x[1520] 1
x[1521] 1
x[1522] 0
x[1523] 1
x[1524] 0
x[1525] 0
x[1526] 0
x[1527] 0
x[1528] 1
x[1529] 1
x[1530] 1
x[1531] 1
x[1532] 1
x[1533] 1
x[1534] 0
x[1535] 0
x[1536] 0
x[1537] 0
x[1538] 0
x[1539] 1
x[1540] 1
x[1541] 1
x[1542] 0
x[1543] 1
x[1544] 0
x[1545] 0
x[1546] 0
x[1547] 0
x[1548] 1
x[1549] 1
x[1550] 1
x[1551] 0
x[1552] 1
x[1553] 0
x[1554] 0
x[1555] 1
x[1556] 0
x[1557] 1
x[1558] 1
x[1559] 0
x[1560] 1
x[1561] 1
x[1562] 0
x[1563] 1
x[1564] 1
x[1565] 1
x[1566] 0
x[1567] 1
x[1568] 0
x[1569] 0
x[1570] 1
x[1571] 0
x[1572] 1
x[1573] 1
x[1574] 0
x[1575] 1
x[1576] 1
x[1577] 1
x[1578] 1
x[1579] 1
x[1580] 0
x[1581] 0
x[1582] 1
x[1583] 1
x[1584] 1
x[1585] 1
x[1586] 0
x[1587] 1
x[1588] 1
x[1589] 0
x[1590] 1
x[1591] 1
x[1592] 0
x[1593] 0
x[1594] 0
x[1595] 1
x[1596] 0
x[1597] 0
x[1598] 1
x[1599] 0
x[1600] 0
x[1601] 1
x[1602] 1
x[1603] 0
x[1604] 1
x[1605] 0
x[1606] 1
x[1607] 1
x[1608] 0
x[1609] 1
x[1610] 1
x[1611] 1
x[1612] 1
x[1613] 1
x[1614] 1
x[1615] 0
x[1616] 0
x[1617] 0
x[1618] 1
x[1619] 0
x[1620] 1
x[1621] 0
x[1622] 1
x[1623] 1
x[1624] 0
x[1625] 1
x[1626] 0
x[1627] 1
x[1628] 0
x[1629] 1
x[1630] 1
x[1631] 0
x[1632] 0
x[1633] 0
x[1634] 0
x[1635] 0
x[1636] 0
x[1637] 1
x[1638] 1
x[1639] 0
x[1640] 1
x[1641] 1
x[1642] 1
x[1643] 0
x[1644] 1
x[1645] 1
x[1646] 1
x[1647] 1
x[1648] 1
x[1649] 0
x[1650] 0
x[1651] 1
x[1652] 1
x[1653] 1
x[1654] 1
x[1655] 1
x[1656] 1
x[1657] 1
x[1658] 1
x[1659] 0
x[1660] 0
x[1661] 0
x[1662] 1
x[1663] 1
x[1664] 0
x[1665] 1
x[1666] 0
x[1667] 1
x[1668] 1
x[1669] 1
x[1670] 1
x[1671] 0
x[1672] 1
x[1673] 0
x[1674] 0
x[1675] 0
x[1676] 0
x[1677] 1
x[1678] 0
x[1679] 0
x[1680] 0
x[1681] 1
x[1682] 1
x[1683] 0
x[1684] 0
x[1685] 1
x[1686] 1
x[1687] 0
x[1688] 1
x[1689] 0
x[1690] 1
x[1691] 1
x[1692] 0
x[1693] 0
x[1694] 0
x[1695] 0
x[1696] 0
x[1697] 0
x[1698] 0
x[1699] 1
x[1700] 0
x[1701] 1
x[1702] 0
x[1703] 1
x[1704] 1
x[1705] 1
x[1706] 1
x[1707] 0
x[1708] 1
x[1709] 0
x[1710] 1
x[1711] 1
x[1712] 0
x[1713] 0
x[1714] 1
x[1715] 1
x[1716] 0
x[1717] 0
x[1718] 0
x[1719] 0
x[1720] 1
x[1721] 0
x[1722] 0
x[1723] 1
x[1724] 1
x[1725] 1
x[1726] 1
x[1727] 1
x[1728] 0
x[1729] 1
x[1730] 1
x[1731] 1
x[1732] 1
x[1733] 0
x[1734] 1
x[1735] 1
x[1736] 1
x[1737] 1
x[1738] 1
x[1739] 1
x[1740] 1
x[1741] 0
x[1742] 1
x[1743] 0
x[1744] 1
x[1745] 0
x[1746] 0
x[1747] 0
x[1748] 1
x[1749] 0
x[1750] 1
x[1751] 1
x[1752] 0
x[1753] 0
x[1754] 1
x[1755] 0
x[1756] 0
x[1757] 0
x[1758] 0
x[1759] 0
x[1760] 1
x[1761] 0
x[1762] 1
x[1763] 0
x[1764] 0
x[1765] 1
x[1766] 1
x[1767] 0
x[1768] 0
x[1769] 0
x[1770] 0
x[1771] 0
x[1772] 1
x[1773] 1
x[1774] 1
x[1775] 1
x[1776] 0
x[1777] 0
x[1778] 0
x[1779] 1
x[1780] 1
x[1781] 0
x[1782] 1
x[1783] 0
x[1784] 0
x[1785] 0
x[1786] 0
x[1787] 1
x[1788] 0
x[1789] 1
x[1790] 1
x[1791] 1
x[1792] 0
x[1793] 0
x[1794] 0
x[1795] 1
x[1796] 0
x[1797] 1
x[1798] 0
x[1799] 0
x[1800] 0
x[1801] 0
x[1802] 0
x[1803] 1
x[1804] 0
x[1805] 0
x[1806] 1
x[1807] 1
x[1808] 1
x[1809] 0
x[1810] 0
x[1811] 1
x[1812] 0
x[1813] 1
x[1814] 0
x[1815] 0
x[1816] 0
x[1817] 1
x[1818] 1
x[1819] 1
x[1820] 1
x[1821] 0
x[1822] 1
x[1823] 1
x[1824] 0
x[1825] 0
x[1826] 1
x[1827] 0
x[1828] 1
x[1829] 0
x[1830] 1
x[1831] 1
x[1832] 1
x[1833] 1
x[1834] 1
x[1835] 1
x[1836] 0
x[1837] 1
x[1838] 1
x[1839] 1
x[1840] 0
x[1841] 0
x[1842] 1
x[1843] 1
x[1844] 1
x[1845] 1
x[1846] 0
x[1847] 1
x[1848] 1
x[1849] 1
x[1850] 0
x[1851] 1
x[1852] 1
x[1853] 0
x[1854] 1
x[1855] 1
x[1856] 1
x[1857] 0
x[1858] 0
x[1859] 0
x[1860] 0
x[1861] 1
x[1862] 0
x[1863] 0
x[1864] 0
x[1865] 0
x[1866] 0
x[1867] 1
x[1868] 1
x[1869] 1
x[1870] 1
x[1871] 0
x[1872] 1
x[1873] 1
x[1874] 1
x[1875] 1
x[1876] 1
x[1877] 1
x[1878] 1
x[1879] 1
x[1880] 1
x[1881] 0
x[1882] 1
x[1883] 0
x[1884] 1
x[1885] 0
x[1886] 1
x[1887] 0
x[1888] 1
x[1889] 1
x[1890] 0
x[1891] 1
x[1892] 1
x[1893] 0
x[1894] 1
x[1895] 0
x[1896] 0
x[1897] 0
x[1898] 0
x[1899] 1
x[1900] 0
x[1901] 1
x[1902] 1
x[1903] 0
x[1904] 1
x[1905] 1
x[1906] 1
x[1907] 0
x[1908] 1
x[1909] 1
x[1910] 0
x[1911] 1
x[1912] 1
x[1913] 1
x[1914] 1
x[1915] 0
x[1916] 0
x[1917] 0
x[1918] 1
x[1919] 0
x[1920] 1
x[1921] 0
x[1922] 0
x[1923] 1
x[1924] 0
x[1925] 1
x[1926] 1
x[1927] 0
x[1928] 1
x[1929] 1
x[1930] 1
x[1931] 1
x[1932] 0
x[1933] 1
x[1934] 0
x[1935] 0
x[1936] 0
x[1937] 1
x[1938] 1
x[1939] 0
x[1940] 0
x[1941] 0
x[1942] 1
x[1943] 1
x[1944] 0
x[1945] 0
x[1946] 0
x[1947] 1
x[1948] 1
x[1949] 1
x[1950] 1
x[1951] 0
x[1952] 1
x[1953] 1
x[1954] 0
x[1955] 0
x[1956] 0
x[1957] 0
x[1958] 1
x[1959] 1
x[1960] 1
x[1961] 1
x[1962] 0
x[1963] 0
x[1964] 0
x[1965] 1
x[1966] 0
x[1967] 1
x[1968] 1
x[1969] 0
x[1970] 0
x[1971] 1
x[1972] 1
x[1973] 1
x[1974] 1
x[1975] 1
x[1976] 0
x[1977] 1
x[1978] 1
x[1979] 0
x[1980] 1
x[1981] 1
x[1982] 1
x[1983] 1
x[1984] 1
x[1985] 1
x[1986] 0
x[1987] 0
x[1988] 0
x[1989] 0
x[1990] 1
x[1991] 1
x[1992] 0
x[1993] 0
x[1994] 0
x[1995] 1
x[1996] 1
x[1997] 0
x[1998] 1
x[1999] 1
